p tw 267 298
1 2
2 113
3 14
3 199
4 5
5 6
6 245
7 8
8 9
9 10
10 11
11 12
12 13
13 15
14 25
15 16
16 17
17 18
18 19
18 24
19 20
20 21
21 22
22 23
23 186
24 26
25 36
25 66
26 27
27 28
28 29
29 30
29 35
30 31
31 32
32 33
33 34
34 27
35 37
36 47
37 38
38 245
39 40
40 41
41 42
42 43
43 44
44 45
45 245
46 48
47 58
47 83
48 49
49 50
50 51
51 52
52 53
53 54
53 60
54 55
55 56
56 57
57 59
58 69
59 186
60 61
61 62
62 63
63 64
64 65
65 184
66 67
67 68
68 70
69 80
69 89
70 71
71 72
72 73
73 74
74 75
74 76
75 186
76 77
77 78
78 79
79 81
80 91
81 82
82 184
83 84
84 85
85 86
86 87
87 88
88 186
89 90
90 92
91 102
91 89
92 93
93 94
94 95
95 186
96 97
97 98
98 99
99 100
99 106
100 101
101 103
102 114
103 104
104 105
105 186
106 107
107 108
108 109
109 110
110 111
111 112
112 115
113 191
114 125
114 205
115 116
116 117
117 118
118 119
119 120
120 121
121 122
122 184
123 124
124 126
125 136
126 127
127 128
128 129
129 130
130 131
131 132
132 133
133 134
133 140
134 135
135 137
136 147
136 89
137 138
138 139
139 186
140 141
141 142
142 143
143 144
144 145
144 154
145 146
146 148
146 152
147 158
148 149
149 150
149 152
150 151
151 152
151 154
152 153
153 154
154 155
155 156
156 157
157 159
158 169
158 214
159 160
160 161
160 164
161 162
162 163
163 164
164 165
165 166
166 167
167 168
168 170
169 180
170 171
171 172
172 173
172 181
173 174
174 175
175 176
176 177
177 178
178 179
179 170
180 188
180 96
181 182
182 183
183 184
184 185
185 186
186 187
188 189
189 190
189 194
190 192
191 202
192 193
192 83
193 123
194 195
195 196
196 197
197 198
198 184
199 200
200 201
201 203
202 213
203 204
204 184
205 206
206 207
207 208
208 209
209 210
210 211
211 212
212 184
213 224
214 215
215 216
216 217
217 218
218 219
218 225
219 220
220 221
221 222
222 223
223 229
224 235
225 226
226 227
227 228
228 229
229 230
230 231
231 232
232 233
233 234
233 239
234 236
235 246
236 237
237 238
238 239
238 245
239 240
240 241
241 242
242 243
243 244
244 245
245 247
246 257
246 83
247 248
248 249
249 250
249 46
250 251
251 252
252 253
253 254
253 46
254 255
255 256
256 258
257 3
258 259
258 39
259 260
260 261
261 262
262 263
263 264
263 267
264 265
265 266
266 267
266 7
267 4
